proyfinal/src/viki/013/experimentInOfficeAgust.take6.output/38ec020b-aae1-4c12-be30-549f91329d53.als.out
Reading from standard input... Use '--help' for help.
============================[ Problem Statistics ]=============================
|                                                                             |
|  Number of variables:         87638                                         |
|  Number of clauses:          161767                                         |
|  Parse time:                   0.04 s                                       |
|                                                                             |
============================[ Search Statistics ]==============================
| Conflicts |          ORIGINAL         |          LEARNT          | Progress |
|           |    Vars  Clauses Literals |    Limit  Clauses Lit/Cl |          |
===============================================================================
|       100 |   62274   104817   261910 |    38432      100      8 | 28.942 % |
|       250 |   62274   104817   261910 |    42276      250     11 | 28.942 % |
|       475 |   62274   104817   261910 |    46503      475     35 | 28.942 % |
|       812 |   62252   104725   261699 |    51154      811     64 | 28.967 % |
|      1318 |   62252   104725   261699 |    56269     1317     82 | 28.967 % |
|      2077 |   62252   104725   261699 |    61896     2076     74 | 28.967 % |
|      3216 |   62234   104651   261528 |    68086     3108     77 | 28.987 % |
|      4924 |   62233   104607   261438 |    74894     4812     74 | 28.989 % |
|      7486 |   47086    60633   153533 |    82384     7315     63 | 46.272 % |
===============================================================================
restarts              : 33
conflicts             : 8188           (7631 /sec)
decisions             : 27722          (0.00 % random) (25835 /sec)
propagations          : 11690743       (10895086 /sec)
conflict literals     : 486431         (46.45 % deleted)
Memory used           : 30.84 MB
CPU time              : 1.07303 s

UNSATISFIABLE
